#######################



#######################
Set parameter TimeLimit to value 500
Set parameter SoftMemLimit to value 125
Set parameter MIPFocus to value 2
Set parameter LogFile to value 1202-MIPFocus2-Presolve1-TimeLimit500-k16x240-5.log
Set parameter Presolve to value 1
Set parameter Seed to value 15
Using license file /opt/gurobi/gurobi.lic

Gurobi Optimizer version 12.0.2 build v12.0.2rc0 (linux64 - "Ubuntu 22.04.4 LTS")
Copyright (c) 2025, Gurobi Optimization, LLC

Read MPS format model from file /miplib2010/k16x240.mps.bz2
Reading time = 0.00 seconds
k16x240: 256 rows, 480 columns, 960 nonzeros

Using Gurobi shared library /nfs/shared/static-builds/gurobi1202

CPU model: Intel(R) Xeon(R) E-2388G CPU @ 3.20GHz, instruction set [SSE2|AVX|AVX2|AVX512]
Thread count: 8 physical cores, 16 logical processors, using up to 16 threads

Non-default parameters:
TimeLimit  500
SoftMemLimit  125
MIPFocus  2
Presolve  1
Seed  15

Optimize a model with 256 rows, 480 columns and 960 nonzeros
Model fingerprint: 0x4e80885f
Variable types: 240 continuous, 240 integer (240 binary)
Coefficient statistics:
  Matrix range     [1e+00, 1e+03]
  Objective range  [1e+00, 1e+03]
  Bounds range     [1e+00, 1e+03]
  RHS range        [4e+00, 4e+02]
Found heuristic solution: objective 16199.000000
Presolve time: 0.00s
Presolved: 256 rows, 480 columns, 960 nonzeros
Variable types: 240 continuous, 240 integer (240 binary)

Root relaxation: objective 2.769838e+03, 51 iterations, 0.00 seconds (0.00 work units)

    Nodes    |    Current Node    |     Objective Bounds      |     Work
 Expl Unexpl |  Obj  Depth IntInf | Incumbent    BestBd   Gap | It/Node Time

     0     0 2769.83800    0   14 16199.0000 2769.83800  82.9%     -    0s
H    0     0                    11359.000000 2769.83800  75.6%     -    0s
H    0     0                    11195.000000 2769.83800  75.3%     -    0s
H    0     0                    11088.000000 2769.83800  75.0%     -    0s
H    0     0                    11074.000000 2769.83800  75.0%     -    0s
     0     0 8116.87580    0   26 11074.0000 8116.87580  26.7%     -    0s
H    0     0                    10916.000000 8161.01413  25.2%     -    0s
H    0     0                    10896.000000 8588.30479  21.2%     -    0s
     0     0 8588.30479    0   25 10896.0000 8588.30479  21.2%     -    0s
H    0     0                    10806.000000 8613.92228  20.3%     -    0s
     0     0 8613.92228    0   22 10806.0000 8613.92228  20.3%     -    0s
     0     0 8720.59081    0   23 10806.0000 8720.59081  19.3%     -    0s
H    0     0                    10748.000000 8724.13618  18.8%     -    0s
     0     0 8841.67029    0   27 10748.0000 8841.67029  17.7%     -    0s
     0     0 8855.22353    0   40 10748.0000 8855.22353  17.6%     -    0s
     0     0 8861.18726    0   41 10748.0000 8861.18726  17.6%     -    0s
     0     0 9008.07180    0   39 10748.0000 9008.07180  16.2%     -    0s
     0     0 9071.01329    0   41 10748.0000 9071.01329  15.6%     -    0s
     0     0 9082.26205    0   38 10748.0000 9082.26205  15.5%     -    0s
     0     0 9104.82987    0   34 10748.0000 9104.82987  15.3%     -    0s
     0     0 9108.11431    0   36 10748.0000 9108.11431  15.3%     -    0s
     0     0 9127.06567    0   28 10748.0000 9127.06567  15.1%     -    0s
     0     0 9129.33020    0   27 10748.0000 9129.33020  15.1%     -    0s
     0     0 9141.66190    0   30 10748.0000 9141.66190  14.9%     -    0s
     0     0 9142.38063    0   30 10748.0000 9142.38063  14.9%     -    0s
     0     2 9145.37218    0   30 10748.0000 9145.37218  14.9%     -    0s
H  148   179                    10681.000000 9250.30264  13.4%  41.9    0s
H  885   764                    10674.000000 9324.32898  12.6%  21.5    0s
 34994 11673 10628.2766   37   13 10674.0000 10059.3052  5.76%  22.6    5s
 84340 15027 10409.1521   39   37 10674.0000 10299.0318  3.51%  23.3   10s

Cutting planes:
  Gomory: 2
  Lift-and-project: 13
  Cover: 85
  Implied bound: 41
  Dual implied bound: 21
  MIR: 142
  Flow cover: 304
  Flow path: 33
  Inf proof: 1
  Zero half: 10
  Network: 46
  Relax-and-lift: 2

Explored 130251 nodes (2825523 simplex iterations) in 14.24 seconds (18.79 work units)
Thread count was 16 (of 16 available processors)

Solution count 10: 10674 10681 10748 ... 11359

Optimal solution found (tolerance 1.00e-04)
Best objective 1.067400000000e+04, best bound 1.067400000000e+04, gap 0.0000%
